

******************************************************************************
This program contains Ipopt, a library for large-scale nonlinear optimization.
 Ipopt is released as open source code under the Eclipse Public License (EPL).
         For more information visit http://projects.coin-or.org/Ipopt
******************************************************************************

This is Ipopt version 3.12.8, running with linear solver mumps.
NOTE: Other linear solvers might be more efficient (see Ipopt documentation).

Number of nonzeros in equality constraint Jacobian...:        0
Number of nonzeros in inequality constraint Jacobian.:        4
Number of nonzeros in Lagrangian Hessian.............:       10

Total number of variables............................:        4
                     variables with only lower bounds:        0
                variables with lower and upper bounds:        0
                     variables with only upper bounds:        0
Total number of equality constraints.................:        0
Total number of inequality constraints...............:        1
        inequality constraints with only lower bounds:        0
   inequality constraints with lower and upper bounds:        0
        inequality constraints with only upper bounds:        1

iter    objective    inf_pr   inf_du lg(mu)  ||d||  lg(rg) alpha_du alpha_pr  ls
   0  1.0000000e+00 1.57e-01 1.24e+00  -1.0 0.00e+00    -  0.00e+00 0.00e+00   0
   1  3.1246519e-02 1.31e-01 1.98e-01  -1.0 5.88e-01    -  1.00e+00 1.00e+00f  1
   2  1.3037151e-02 1.32e-01 8.16e-01  -1.7 2.36e-01    -  1.00e+00 4.23e-01h  1
   3  2.9296792e-02 1.29e-01 1.19e+02  -1.7 2.56e+00    -  1.00e+00 2.21e-02h  1
   4  4.5446564e+00 2.55e-03 3.48e+00  -1.7 1.65e+00   0.0 1.00e+00 1.00e+00h  1
   5  4.3554538e+00 2.55e-05 6.46e+02  -1.7 1.57e+00    -  1.00e+00 2.11e-02F  1
   6  1.1821142e+00 5.88e-02 2.23e+01  -1.7 1.91e+00    -  1.00e+00 5.00e-01f  2
   7  1.1211117e+00 1.54e-02 7.12e+00  -1.7 1.05e-01   1.3 1.00e+00 1.00e+00f  1
   8  9.0734523e-01 5.79e-03 2.37e+00  -1.7 1.12e-01   0.9 1.00e+00 1.00e+00f  1
   9  8.0024644e-01 6.32e-03 1.77e+00  -1.7 9.79e-02   0.4 1.00e+00 1.00e+00f  1
iter    objective    inf_pr   inf_du lg(mu)  ||d||  lg(rg) alpha_du alpha_pr  ls
  10  9.3789236e-01 2.87e-03 1.97e+00  -1.7 8.73e-02    -  1.00e+00 1.00e+00h  1
  11  1.0326761e+00 1.45e-03 2.49e+00  -1.7 4.79e-02   0.8 1.00e+00 1.00e+00h  1
  12  1.0718628e+00 9.70e-04 3.44e+01  -1.7 1.68e-01    -  1.00e+00 5.00e-01h  2
  13  1.2010831e+00 2.96e-04 8.61e-01  -1.7 4.72e-02   0.3 1.00e+00 1.00e+00h  1
  14  1.3029651e+00 7.84e-05 2.70e+00  -1.7 3.25e-02    -  1.00e+00 1.00e+00h  1
  15  1.3543635e+00 1.21e-05 3.34e+00  -1.7 1.84e-02   0.7 1.00e+00 1.00e+00h  1
  16  1.3734542e+00 0.00e+00 1.95e+00  -1.7 2.41e-02    -  1.00e+00 1.00e+00h  1
  17  1.3649537e+00 0.00e+00 2.99e-01  -2.5 1.17e-02   0.3 1.00e+00 1.00e+00f  1
  18  1.3626787e+00 0.00e+00 7.36e-02  -3.8 6.83e-03  -0.2 1.00e+00 1.00e+00f  1
  19  1.3627925e+00 0.00e+00 1.37e-03  -3.8 9.74e-04  -0.7 1.00e+00 1.00e+00h  1
iter    objective    inf_pr   inf_du lg(mu)  ||d||  lg(rg) alpha_du alpha_pr  ls
  20  1.3626481e+00 0.00e+00 9.92e-06  -5.7 4.67e-05  -1.2 1.00e+00 1.00e+00f  1
  21  1.3626462e+00 0.00e+00 8.96e-10  -8.6 5.53e-07    -  1.00e+00 1.00e+00h  1

Number of Iterations....: 21

                                   (scaled)                 (unscaled)
Objective...............:   1.3626462201685636e+00    1.3626462201685636e+00
Dual infeasibility......:   8.9611329467942369e-10    8.9611329467942369e-10
Constraint violation....:   0.0000000000000000e+00    0.0000000000000000e+00
Complementarity.........:   2.5303479709272776e-09    2.5303479709272776e-09
Overall NLP error.......:   2.3878399257881716e-10    2.5303479709272776e-09


Number of objective function evaluations             = 28
Number of objective gradient evaluations             = 22
Number of equality constraint evaluations            = 0
Number of inequality constraint evaluations          = 28
Number of equality constraint Jacobian evaluations   = 0
Number of inequality constraint Jacobian evaluations = 22
Number of Lagrangian Hessian evaluations             = 21
Total CPU secs in IPOPT (w/o function evaluations)   =      0.008
Total CPU secs in NLP function evaluations           =      0.006

EXIT: Optimal Solution Found.
 
Ipopt 3.12.8: Optimal Solution Found
